%BLOCK LATTICE_ABC
            2.7854505       2.7854505       2.7854505
            90.0            90.0            90.0
%ENDBLOCK LATTICE_ABC

%BLOCK POSITIONS_FRAC
Ca                  0              0                   0
Ca		      0.5 	     0.5    	         0.5
%ENDBLOCK POSITIONS_FRAC

KPOINTS_MP_GRID 	  	8	8	8

phonon_kpoint_mp_grid		4	4	4 

supercell_kpoint_mp_grid  	2	2	2

%block phonon_fine_kpoint_path
0.0 0.0 0.0 		! Gamma
-0.5 0.5 0.5		!H
0.0 0.0 0.5		!N
0.0 0.0 0.0		!Gamma
0.25 0.25 0.25	!P
-0.5 0.5 0.5		!H
0.0 0.0 0.0 		!Gamma
0.25 0.25 0.25	!P
0.0 0.0 0.5		!N
%endblock phonon_fine_kpoint_path

symmetry_generate

%block PHONON_SUPERCELL_MATRIX 
2 0 0
0 2 0
0 0 2
%endblock PHONON_SUPERCELL_MATRIX 
