%BLOCK LATTICE_ABC
            2.215134       2.215134       2.215134
            90.0            90.0            90.0
%ENDBLOCK LATTICE_ABC

%BLOCK POSITIONS_FRAC
Ca                  0       0         0
Ca		      0       0.5     0.5
Ca		      0.5     0       0.5 
Ca		      0.5     0.5       0
%ENDBLOCK POSITIONS_FRAC

KPOINTS_MP_GRID 	  	4	4	4

phonon_kpoint_mp_grid		2	2	2 

supercell_kpoint_mp_grid  	2	2	2

%block phonon_fine_kpoint_path
0.0 0.0 0.0 		! Gamma
0.0	0.5	0.5 		!X
0.25	0.75	0.5		!W
0.375	0.75	0.375		!K
0.0	0.0	0.0 		!Gamma
0.5	0.5	0.5 		!L
0.25	0.625	0.625		!U
0.25	0.75	0.5		!W
0.5	0.5	0.5 		!L
0.0	0.0	0.0 		!Gamma
0.25	0.625	0.625		!U
0.0	0.5	0.5 		!X
%endblock phonon_fine_kpoint_path

symmetry_generate

%block PHONON_SUPERCELL_MATRIX 
2 0 0
0 2 0
0 0 2
%endblock PHONON_SUPERCELL_MATRIX 
